NAME: rat195
COMMENT: Local search tour for rat195 (2570.660884064464)
TYPE: TOUR
DIMENSION: 195
TOUR_SECTION: 1 2 3 4 5 6 8 7 19 17 18 20 21 22 23 9 10 11 12 13 24 25 26 38 37 36 35 34 46 47 48 49 50 39 52 51 63 64 65 78 77 76 75 62 61 60 59 71 72 73 74 87 88 89 90 91 104 103 102 101 100 99 98 113 114 127 128 129 115 116 117 130 142 143 156 155 154 141 140 139 138 137 136 135 134 133 132 147 148 149 150 151 152 153 166 165 164 163 162 161 160 159 171 172 173 174 175 176 177 178 179 181 180 167 168 169 182 195 194 193 192 191 190 189 188 187 186 185 184 183 170 157 158 146 145 144 131 118 119 120 121 122 123 124 125 126 112 111 110 109 108 107 106 105 92 93 94 95 96 97 86 85 84 83 82 81 80 79 66 67 68 69 70 58 57 56 55 54 53 40 41 42 43 44 45 33 32 31 30 29 28 27 16 15 14 -1
EOF